(declare-rel state (Bool Int Int Int Int Int Int Int Int Int Bool Bool Bool Int Int Bool Bool))
(declare-var |_OK_| Bool)
(declare-var |_OK_.next| Bool)
(declare-var |call_Age.age_of_p| Int)
(declare-var |call_Age.age_of_p.next| Int)
(declare-var |call_Age.flby| Int)
(declare-var |call_Age.flby.next| Int)
(declare-var |call_Age.ite_keyword| Int)
(declare-var |call_Age.ite_keyword.next| Int)
(declare-var |call_Age2.age_of_p| Int)
(declare-var |call_Age2.age_of_p.next| Int)
(declare-var |call_Age2.flby| Int)
(declare-var |call_Age2.flby.next| Int)
(declare-var |call_Age2.ite_keyword| Int)
(declare-var |call_Age2.ite_keyword.next| Int)
(declare-var |call_Age3.age_of_p| Int)
(declare-var |call_Age3.age_of_p.next| Int)
(declare-var |call_Age3.flby| Int)
(declare-var |call_Age3.flby.next| Int)
(declare-var |call_Age3.ite_keyword| Int)
(declare-var |call_Age3.ite_keyword.next| Int)
(declare-var |call_Sofar.Sofar| Bool)
(declare-var |call_Sofar.Sofar.next| Bool)
(declare-var |call_Sofar.flby| Bool)
(declare-var |call_Sofar.flby.next| Bool)
(declare-var |env| Bool)
(declare-var |env.next| Bool)
(declare-var |flby| Int)
(declare-var |flby.next| Int)
(declare-var |k| Int)
(declare-var |k.next| Int)
(declare-var |param_k0| Int)
(declare-var |param_p| Bool)
(declare-var |param_q| Bool)
(declare-var |param_q.next| Bool)
(declare-var |param_r| Bool)
(declare-var |param_t| Bool)
(declare-var |param_t.next| Bool)

(define-fun .init () Bool
(let ((.def_56 (<= k call_Age2.age_of_p)))
(let ((.def_57 (not .def_56)))
(let ((.def_58 (or param_t .def_57)))
(let ((.def_52 (<= k call_Age.age_of_p)))
(let ((.def_53 (not .def_52)))
(let ((.def_54 (or param_q .def_53)))
(let ((.def_51 (<= 1 k)))
(let ((.def_55 (and .def_51 .def_54)))
(let ((.def_59 (and .def_55 .def_58)))
(let ((.def_60 (= call_Sofar.flby .def_59)))
(let ((.def_47 (= call_Age.flby 0)))
(let ((.def_46 (= flby param_k0)))
(let ((.def_48 (and .def_46 .def_47)))
(let ((.def_44 (= call_Age2.flby 0)))
(let ((.def_49 (and .def_44 .def_48)))
(let ((.def_61 (and .def_49 .def_60)))
(let ((.def_43 (= call_Age3.flby 0)))
(let ((.def_62 (and .def_43 .def_61)))
(let ((.def_32 (not env)))
(let ((.def_29 (<= k call_Age3.age_of_p)))
(let ((.def_30 (not .def_29)))
(let ((.def_28 (and param_t param_q)))
(let ((.def_31 (or .def_28 .def_30)))
(let ((.def_33 (or .def_31 .def_32)))
(let ((.def_35 (= .def_33 _OK_)))
(let ((.def_25 (= k flby)))
(let ((.def_36 (and .def_25 .def_35)))
(let ((.def_22 (= call_Sofar.Sofar env)))
(let ((.def_37 (and .def_22 .def_36)))
(let ((.def_20 (= call_Age.age_of_p call_Age.flby)))
(let ((.def_38 (and .def_20 .def_37)))
(let ((.def_17 (= call_Age2.age_of_p call_Age2.flby)))
(let ((.def_39 (and .def_17 .def_38)))
(let ((.def_14 (= call_Sofar.flby call_Sofar.Sofar)))
(let ((.def_40 (and .def_14 .def_39)))
(let ((.def_11 (= call_Age3.flby call_Age3.age_of_p)))
(let ((.def_41 (and .def_11 .def_40)))
(let ((.def_63 (and .def_41 .def_62)))
.def_63)))))))))))))))))))))))))))))))))))))))

(define-fun .trans () Bool
(let ((.def_133 (= call_Age.ite_keyword.next 0)))
(let ((.def_134 (or param_p .def_133)))
(let ((.def_131 (= call_Age.age_of_p call_Age.ite_keyword.next)))
(let ((.def_130 (not param_p)))
(let ((.def_132 (or .def_130 .def_131)))
(let ((.def_135 (and .def_132 .def_134)))
(let ((.def_128 (= call_Age3.age_of_p call_Age3.ite_keyword.next)))
(let ((.def_125 (and param_r param_p)))
(let ((.def_127 (not .def_125)))
(let ((.def_129 (or .def_127 .def_128)))
(let ((.def_136 (and .def_129 .def_135)))
(let ((.def_123 (= call_Age3.ite_keyword.next 0)))
(let ((.def_126 (or .def_123 .def_125)))
(let ((.def_137 (and .def_126 .def_136)))
(let ((.def_122 (= k flby.next)))
(let ((.def_138 (and .def_122 .def_137)))
(let ((.def_119 (= call_Age2.ite_keyword.next 0)))
(let ((.def_120 (or param_r .def_119)))
(let ((.def_117 (= call_Age2.age_of_p call_Age2.ite_keyword.next)))
(let ((.def_116 (not param_r)))
(let ((.def_118 (or .def_116 .def_117)))
(let ((.def_121 (and .def_118 .def_120)))
(let ((.def_139 (and .def_121 .def_138)))
(let ((.def_114 (= call_Age.flby.next call_Age.ite_keyword.next)))
(let ((.def_140 (and .def_114 .def_139)))
(let ((.def_112 (= call_Age2.flby.next call_Age2.ite_keyword.next)))
(let ((.def_141 (and .def_112 .def_140)))
(let ((.def_105 (<= k.next call_Age2.age_of_p.next)))
(let ((.def_106 (not .def_105)))
(let ((.def_107 (or param_t.next .def_106)))
(let ((.def_101 (<= k.next call_Age.age_of_p.next)))
(let ((.def_102 (not .def_101)))
(let ((.def_103 (or param_q.next .def_102)))
(let ((.def_100 (<= 1 k.next)))
(let ((.def_104 (and .def_100 .def_103)))
(let ((.def_108 (and .def_104 .def_107)))
(let ((.def_109 (and call_Sofar.Sofar .def_108)))
(let ((.def_110 (= call_Sofar.flby.next .def_109)))
(let ((.def_142 (and .def_110 .def_141)))
(let ((.def_99 (= call_Age3.flby.next call_Age3.ite_keyword.next)))
(let ((.def_143 (and .def_99 .def_142)))
(let ((.def_87 (not env.next)))
(let ((.def_84 (<= k.next call_Age3.age_of_p.next)))
(let ((.def_85 (not .def_84)))
(let ((.def_83 (and param_t.next param_q.next)))
(let ((.def_86 (or .def_83 .def_85)))
(let ((.def_88 (or .def_86 .def_87)))
(let ((.def_90 (= .def_88 _OK_.next)))
(let ((.def_80 (= flby.next k.next)))
(let ((.def_91 (and .def_80 .def_90)))
(let ((.def_77 (= call_Sofar.Sofar.next env.next)))
(let ((.def_92 (and .def_77 .def_91)))
(let ((.def_75 (= call_Age.flby.next call_Age.age_of_p.next)))
(let ((.def_93 (and .def_75 .def_92)))
(let ((.def_72 (= call_Age2.flby.next call_Age2.age_of_p.next)))
(let ((.def_94 (and .def_72 .def_93)))
(let ((.def_69 (= call_Sofar.flby.next call_Sofar.Sofar.next)))
(let ((.def_95 (and .def_69 .def_94)))
(let ((.def_66 (= call_Age3.flby.next call_Age3.age_of_p.next)))
(let ((.def_96 (and .def_66 .def_95)))
(let ((.def_32 (not env)))
(let ((.def_29 (<= k call_Age3.age_of_p)))
(let ((.def_30 (not .def_29)))
(let ((.def_28 (and param_t param_q)))
(let ((.def_31 (or .def_28 .def_30)))
(let ((.def_33 (or .def_31 .def_32)))
(let ((.def_35 (= .def_33 _OK_)))
(let ((.def_25 (= k flby)))
(let ((.def_36 (and .def_25 .def_35)))
(let ((.def_22 (= call_Sofar.Sofar env)))
(let ((.def_37 (and .def_22 .def_36)))
(let ((.def_20 (= call_Age.age_of_p call_Age.flby)))
(let ((.def_38 (and .def_20 .def_37)))
(let ((.def_17 (= call_Age2.age_of_p call_Age2.flby)))
(let ((.def_39 (and .def_17 .def_38)))
(let ((.def_14 (= call_Sofar.flby call_Sofar.Sofar)))
(let ((.def_40 (and .def_14 .def_39)))
(let ((.def_11 (= call_Age3.flby call_Age3.age_of_p)))
(let ((.def_41 (and .def_11 .def_40)))
(let ((.def_97 (and .def_41 .def_96)))
(let ((.def_144 (and .def_97 .def_143)))
.def_144))))))))))))))))))))))))))))))))))))))))))))))))))))))))))))))))))))))))))))))))))

(define-fun .property () Bool
_OK_)

(rule (=> .init (state |_OK_| |call_Age.age_of_p| |call_Age.flby| |call_Age.ite_keyword| |call_Age2.age_of_p| |call_Age2.flby| |call_Age2.ite_keyword| |call_Age3.age_of_p| |call_Age3.flby| |call_Age3.ite_keyword| |call_Sofar.Sofar| |call_Sofar.flby| |env| |flby| |k| |param_q| |param_t|)))
(rule (=> (and (state |_OK_| |call_Age.age_of_p| |call_Age.flby| |call_Age.ite_keyword| |call_Age2.age_of_p| |call_Age2.flby| |call_Age2.ite_keyword| |call_Age3.age_of_p| |call_Age3.flby| |call_Age3.ite_keyword| |call_Sofar.Sofar| |call_Sofar.flby| |env| |flby| |k| |param_q| |param_t|) .trans) (state |_OK_.next| |call_Age.age_of_p.next| |call_Age.flby.next| |call_Age.ite_keyword.next| |call_Age2.age_of_p.next| |call_Age2.flby.next| |call_Age2.ite_keyword.next| |call_Age3.age_of_p.next| |call_Age3.flby.next| |call_Age3.ite_keyword.next| |call_Sofar.Sofar.next| |call_Sofar.flby.next| |env.next| |flby.next| |k.next| |param_q.next| |param_t.next|)))
(declare-rel benchmark_query ())
(rule (=> (and (state |_OK_| |call_Age.age_of_p| |call_Age.flby| |call_Age.ite_keyword| |call_Age2.age_of_p| |call_Age2.flby| |call_Age2.ite_keyword| |call_Age3.age_of_p| |call_Age3.flby| |call_Age3.ite_keyword| |call_Sofar.Sofar| |call_Sofar.flby| |env| |flby| |k| |param_q| |param_t|) (not .property)) benchmark_query))
(query benchmark_query)
